column=9;
row=9;
Board=[|3,2,0,6,0,0,1,9,8|0,0,0,0,3,0,0,0,5|6,0,9,0,0,0,0,7,0|0,0,0,0,2,0,0,1,6|0,0,6,0,1,5,0,0,3|0,0,0,3,0,6,0,0,0|0,0,0,0,6,0,0,0,0|9,6,0,0,0,0,0,0,0|0,8,0,5,9,0,0,3,0|];
horizontal=[|1,0,1,0,0,0,0,1|0,1,1,0,0,1,0,1|0,0,0,0,0,0,0,0|0,1,0,0,0,0,0,0|0,0,0,0,0,0,1,0|0,0,0,0,1,0,0,0|1,0,0,0,0,0,0,0|0,0,0,1,0,0,1,0|0,0,0,0,0,0,0,0|];
vertical=[|1,0,0,0,1,0,1,0,0|0,0,1,0,0,0,1,1,1|1,0,0,0,0,1,0,0,0|0,0,0,0,1,0,0,0,0|0,0,0,1,0,1,0,0,1|0,1,0,0,1,0,1,0,0|0,0,0,0,0,1,0,0,0|0,0,1,0,1,0,0,0,0|];
